\ This file has been generated by DOcplex
\ ENCODING=ISO-8859-1
\Problem name: <decpomdp.DecPOMDP object at 0x105180940> problem

Maximize
 obj: 0.090000000000 V_0 + 0.010000000000 V_1 + 0.810000000000 V_2
      + 0.090000000000 V_3
Subject To
 c1: V_0 <= 0
 c2: V_0 <= 0
 c3: 1.000000000000 a0_1 - V_1 >= 0
 c4: V_1 <= 0
 c5: V_2 <= 0
 c6: 1.000000000000 a0_0 - V_2 >= 0
 c7: 1.000000000000 a0_1 - V_3 >= 0
 c8: a0_0 - V_3 >= 0
 c9: a0_0 + a0_1 = 1

Bounds
       a0_0 <= 1
       a0_1 <= 1
       V_0 Free
       V_1 Free
       V_2 Free
       V_3 Free
End
